Generations:
0: ((27, 33, 4, 16, 31, 14, 30, 48, 19, 9, 46, 22, 44, 26, 11, 5, 25, 12, 6, 37, 13, 49, 17, 24, 32, 40, 47, 28, 38, 36, 10, 0, 7, 29, 18, 34, 3, 20, 41, 21, 43, 35, 15, 2, 8, 39, 1, 42, 23, 45), 1208)
1: ((27, 33, 4, 16, 31, 14, 30, 48, 19, 9, 46, 22, 44, 26, 11, 5, 25, 12, 6, 37, 13, 49, 17, 24, 32, 40, 47, 28, 38, 36, 10, 0, 7, 29, 18, 34, 3, 20, 41, 21, 43, 35, 15, 2, 8, 39, 1, 42, 23, 45), 1208)
2: ((27, 33, 4, 16, 31, 14, 30, 48, 19, 9, 46, 22, 44, 26, 11, 5, 25, 12, 6, 37, 13, 49, 17, 24, 32, 40, 47, 28, 38, 36, 10, 0, 7, 29, 18, 34, 3, 20, 41, 21, 43, 35, 15, 2, 8, 39, 1, 42, 23, 45), 1208)
3: ((27, 33, 4, 16, 31, 14, 30, 48, 19, 9, 46, 22, 44, 26, 11, 5, 25, 12, 6, 37, 13, 49, 17, 24, 32, 40, 47, 28, 38, 36, 10, 0, 7, 29, 18, 34, 3, 20, 41, 21, 43, 35, 15, 2, 8, 39, 1, 42, 23, 45), 1208)
4: ((27, 33, 4, 16, 31, 14, 30, 48, 19, 9, 46, 22, 44, 26, 11, 5, 25, 12, 6, 37, 13, 49, 17, 24, 32, 40, 47, 28, 38, 36, 10, 0, 7, 29, 18, 34, 3, 20, 41, 21, 43, 35, 15, 2, 8, 39, 1, 42, 23, 45), 1208)
5: ((27, 33, 4, 16, 31, 14, 30, 48, 19, 9, 46, 22, 44, 26, 11, 5, 25, 12, 6, 37, 13, 49, 17, 24, 32, 40, 47, 28, 38, 36, 10, 0, 7, 29, 18, 34, 3, 20, 41, 21, 43, 35, 15, 2, 8, 39, 1, 42, 23, 45), 1208)
6: ((27, 33, 4, 16, 31, 14, 30, 48, 19, 9, 46, 22, 44, 26, 11, 5, 25, 12, 6, 37, 13, 49, 17, 24, 32, 40, 47, 28, 38, 36, 10, 0, 7, 29, 18, 34, 3, 20, 41, 21, 43, 35, 15, 2, 8, 39, 1, 42, 23, 45), 1208)
7: ((33, 4, 16, 31, 14, 30, 48, 19, 9, 46, 22, 44, 26, 11, 5, 25, 12, 37, 13, 49, 17, 32, 40, 47, 28, 38, 36, 10, 0, 7, 29, 18, 34, 3, 20, 41, 21, 43, 35, 15, 2, 8, 45, 24, 39, 6, 1, 42, 23, 27), 1193)
8: ((33, 4, 16, 31, 14, 30, 48, 19, 9, 46, 22, 44, 26, 11, 5, 25, 12, 37, 13, 49, 17, 32, 40, 47, 28, 38, 36, 10, 0, 7, 29, 18, 34, 3, 20, 41, 21, 43, 35, 15, 2, 8, 45, 24, 39, 6, 1, 42, 23, 27), 1193)
9: ((38, 6, 11, 47, 13, 44, 30, 3, 17, 12, 4, 21, 15, 46, 25, 9, 29, 26, 14, 33, 39, 8, 28, 22, 45, 5, 49, 27, 41, 24, 37, 34, 2, 35, 7, 36, 0, 19, 20, 23, 48, 42, 43, 40, 16, 31, 32, 1, 10, 18), 1183)
10: ((3, 34, 10, 12, 33, 4, 38, 16, 31, 40, 37, 17, 43, 44, 1, 9, 30, 46, 21, 42, 32, 48, 27, 6, 41, 45, 35, 7, 13, 36, 0, 19, 20, 23, 2, 39, 11, 18, 49, 29, 14, 8, 15, 24, 26, 47, 28, 22, 25, 5), 1182)
11: ((3, 34, 10, 12, 33, 4, 38, 16, 31, 40, 37, 17, 43, 44, 1, 9, 30, 46, 21, 42, 32, 48, 27, 6, 41, 45, 35, 7, 13, 36, 0, 19, 20, 23, 2, 39, 11, 18, 49, 29, 14, 8, 15, 24, 26, 47, 28, 22, 25, 5), 1182)
12: ((3, 34, 10, 12, 33, 4, 38, 16, 31, 40, 37, 17, 43, 44, 1, 9, 30, 46, 21, 42, 32, 48, 27, 6, 41, 45, 35, 7, 13, 36, 0, 19, 20, 23, 2, 39, 11, 18, 49, 29, 14, 8, 15, 24, 26, 47, 28, 22, 25, 5), 1182)
13: ((3, 34, 10, 12, 33, 4, 38, 16, 31, 40, 37, 17, 43, 44, 1, 9, 30, 46, 21, 42, 32, 48, 27, 6, 41, 45, 35, 7, 13, 36, 0, 19, 20, 23, 2, 39, 11, 18, 49, 29, 14, 8, 15, 24, 26, 47, 28, 22, 25, 5), 1182)
14: ((3, 34, 10, 12, 33, 4, 38, 16, 31, 40, 37, 17, 43, 44, 1, 9, 30, 46, 21, 42, 32, 48, 27, 6, 41, 45, 35, 7, 13, 36, 0, 19, 20, 23, 2, 39, 11, 18, 49, 29, 14, 8, 15, 24, 26, 47, 28, 22, 25, 5), 1182)
15: ((11, 16, 47, 13, 44, 30, 3, 17, 38, 12, 4, 21, 15, 46, 25, 9, 29, 26, 14, 33, 39, 8, 28, 22, 45, 5, 49, 27, 41, 24, 37, 34, 2, 35, 7, 31, 0, 19, 20, 23, 48, 42, 43, 40, 18, 10, 36, 6, 32, 1), 1159)
16: ((11, 16, 47, 13, 44, 30, 3, 17, 38, 12, 4, 21, 15, 46, 25, 9, 29, 26, 14, 33, 39, 8, 28, 22, 45, 5, 49, 27, 41, 24, 37, 34, 2, 35, 7, 31, 0, 19, 20, 23, 48, 42, 43, 40, 18, 10, 36, 6, 32, 1), 1159)
17: ((11, 16, 47, 13, 44, 30, 3, 17, 38, 12, 4, 21, 15, 46, 25, 9, 29, 26, 14, 33, 39, 8, 28, 22, 45, 5, 49, 27, 41, 24, 37, 34, 2, 35, 7, 31, 0, 19, 20, 23, 48, 42, 43, 40, 18, 10, 36, 6, 32, 1), 1159)
18: ((11, 16, 47, 13, 44, 30, 3, 17, 38, 12, 4, 21, 15, 46, 25, 9, 29, 26, 14, 33, 39, 8, 28, 22, 45, 5, 49, 27, 41, 24, 37, 34, 2, 35, 7, 31, 0, 19, 20, 23, 48, 42, 43, 40, 18, 10, 36, 6, 32, 1), 1159)
19: ((11, 16, 47, 13, 44, 30, 3, 17, 38, 12, 4, 21, 15, 46, 25, 9, 29, 26, 14, 33, 39, 8, 28, 22, 45, 5, 49, 27, 41, 24, 37, 34, 2, 35, 7, 31, 0, 19, 20, 23, 48, 42, 43, 40, 18, 10, 36, 6, 32, 1), 1159)
20: ((11, 16, 47, 13, 44, 30, 3, 17, 38, 12, 4, 21, 15, 46, 25, 9, 29, 26, 14, 33, 39, 8, 28, 22, 45, 5, 49, 27, 41, 24, 37, 34, 2, 35, 7, 31, 0, 19, 20, 23, 48, 42, 43, 40, 18, 10, 36, 6, 32, 1), 1159)
21: ((11, 16, 47, 13, 44, 30, 3, 17, 38, 12, 4, 21, 15, 46, 25, 9, 29, 26, 14, 33, 39, 8, 28, 22, 45, 5, 49, 27, 41, 24, 37, 34, 2, 35, 7, 31, 0, 19, 20, 23, 48, 42, 43, 40, 18, 10, 36, 6, 32, 1), 1159)
22: ((11, 16, 47, 13, 44, 30, 3, 17, 38, 12, 4, 21, 15, 46, 25, 9, 29, 26, 14, 33, 39, 8, 28, 22, 45, 5, 49, 27, 41, 24, 37, 34, 2, 35, 7, 31, 0, 19, 20, 23, 48, 42, 43, 40, 18, 10, 36, 6, 32, 1), 1159)
23: ((11, 16, 47, 13, 44, 30, 3, 17, 38, 12, 4, 21, 15, 46, 25, 9, 29, 26, 14, 33, 39, 8, 28, 22, 45, 5, 49, 27, 41, 24, 37, 34, 2, 35, 7, 31, 0, 19, 20, 23, 48, 42, 43, 40, 18, 10, 36, 6, 32, 1), 1159)
24: ((11, 16, 47, 13, 44, 30, 3, 17, 38, 12, 4, 21, 15, 46, 25, 9, 29, 26, 14, 33, 39, 8, 28, 22, 45, 5, 49, 27, 41, 24, 37, 34, 2, 35, 7, 31, 0, 19, 20, 23, 48, 42, 43, 40, 18, 10, 36, 6, 32, 1), 1159)
25: ((11, 16, 47, 13, 44, 30, 3, 17, 38, 12, 4, 21, 15, 46, 25, 9, 29, 26, 14, 33, 39, 8, 28, 22, 45, 5, 49, 27, 41, 24, 37, 34, 2, 35, 7, 31, 0, 19, 20, 23, 48, 42, 43, 40, 18, 10, 36, 6, 32, 1), 1159)
26: ((7, 47, 13, 44, 30, 17, 12, 4, 21, 15, 46, 25, 9, 29, 26, 14, 33, 39, 8, 28, 22, 27, 41, 37, 2, 0, 32, 43, 48, 19, 23, 16, 5, 1, 38, 20, 24, 34, 31, 42, 40, 6, 10, 36, 49, 11, 3, 35, 45, 18), 1130)
27: ((7, 47, 13, 44, 30, 17, 12, 4, 21, 15, 46, 25, 9, 29, 26, 14, 33, 39, 8, 28, 22, 27, 41, 37, 2, 0, 32, 43, 48, 19, 23, 16, 5, 1, 38, 20, 24, 34, 31, 42, 40, 6, 10, 36, 49, 11, 3, 35, 45, 18), 1130)
28: ((7, 47, 13, 44, 30, 17, 12, 4, 21, 15, 46, 25, 9, 29, 26, 14, 33, 39, 8, 28, 22, 27, 41, 37, 2, 0, 32, 43, 48, 19, 23, 16, 5, 1, 38, 20, 24, 34, 31, 42, 40, 6, 10, 36, 49, 11, 3, 35, 45, 18), 1130)
29: ((7, 47, 13, 44, 30, 17, 12, 4, 21, 15, 46, 25, 9, 29, 26, 14, 33, 39, 8, 28, 22, 27, 41, 37, 2, 0, 32, 43, 48, 19, 23, 16, 5, 1, 38, 20, 24, 34, 31, 42, 40, 6, 10, 36, 49, 11, 3, 35, 45, 18), 1130)
30: ((7, 47, 13, 44, 30, 17, 12, 4, 21, 15, 46, 25, 9, 29, 26, 14, 33, 39, 8, 28, 22, 27, 41, 37, 2, 0, 32, 43, 48, 19, 23, 16, 5, 1, 38, 20, 24, 34, 31, 42, 40, 6, 10, 36, 49, 11, 3, 35, 45, 18), 1130)
31: ((7, 47, 13, 44, 30, 17, 12, 4, 21, 15, 46, 25, 9, 29, 26, 14, 33, 39, 8, 28, 22, 27, 41, 37, 2, 0, 32, 43, 48, 19, 23, 16, 5, 1, 38, 20, 24, 34, 31, 42, 40, 6, 10, 36, 49, 11, 3, 35, 45, 18), 1130)
32: ((7, 47, 13, 44, 30, 17, 12, 4, 21, 15, 46, 25, 9, 29, 26, 14, 33, 39, 8, 28, 22, 27, 41, 37, 2, 0, 32, 43, 48, 19, 23, 16, 5, 1, 38, 20, 24, 34, 31, 42, 40, 6, 10, 36, 49, 11, 3, 35, 45, 18), 1130)
33: ((7, 47, 13, 44, 30, 17, 12, 4, 21, 15, 46, 25, 9, 29, 26, 14, 33, 39, 8, 28, 22, 27, 41, 37, 2, 0, 32, 43, 48, 19, 23, 16, 5, 1, 38, 20, 24, 34, 31, 42, 40, 6, 10, 36, 49, 11, 3, 35, 45, 18), 1130)
34: ((7, 47, 13, 44, 30, 17, 12, 4, 21, 15, 46, 25, 9, 29, 26, 14, 33, 39, 8, 28, 22, 27, 41, 37, 2, 0, 32, 43, 48, 19, 23, 16, 5, 1, 38, 20, 24, 34, 31, 42, 40, 6, 10, 36, 49, 11, 3, 35, 45, 18), 1130)
35: ((7, 47, 13, 44, 30, 17, 12, 4, 21, 15, 46, 25, 9, 29, 26, 14, 33, 39, 8, 28, 22, 27, 41, 37, 2, 0, 32, 43, 48, 19, 23, 16, 5, 1, 38, 20, 24, 34, 31, 42, 40, 6, 10, 36, 49, 11, 3, 35, 45, 18), 1130)
36: ((7, 47, 13, 44, 30, 17, 12, 4, 21, 15, 46, 25, 9, 29, 26, 14, 33, 39, 8, 28, 22, 27, 41, 37, 2, 0, 32, 43, 48, 19, 23, 16, 5, 1, 38, 20, 24, 34, 31, 42, 40, 6, 10, 36, 49, 11, 3, 35, 45, 18), 1130)
37: ((7, 47, 13, 44, 30, 17, 12, 4, 21, 15, 46, 25, 9, 29, 26, 14, 33, 39, 8, 28, 22, 27, 41, 37, 2, 0, 32, 43, 48, 19, 23, 16, 5, 1, 38, 20, 24, 34, 31, 42, 40, 6, 10, 36, 49, 11, 3, 35, 45, 18), 1130)
38: ((7, 47, 13, 44, 30, 17, 12, 4, 21, 15, 46, 25, 9, 29, 26, 14, 33, 39, 8, 28, 22, 27, 41, 37, 2, 0, 32, 43, 48, 19, 23, 16, 5, 1, 38, 20, 24, 34, 31, 42, 40, 6, 10, 36, 49, 11, 3, 35, 45, 18), 1130)
39: ((7, 47, 13, 44, 30, 17, 12, 4, 21, 15, 46, 25, 9, 29, 26, 14, 33, 39, 8, 28, 22, 27, 41, 37, 2, 0, 32, 43, 48, 19, 23, 16, 5, 1, 38, 20, 24, 34, 31, 42, 40, 6, 10, 36, 49, 11, 3, 35, 45, 18), 1130)
40: ((7, 47, 13, 44, 30, 17, 12, 4, 21, 15, 46, 25, 9, 29, 26, 14, 33, 39, 8, 28, 22, 27, 41, 37, 2, 0, 32, 43, 48, 19, 23, 16, 5, 1, 38, 20, 24, 34, 31, 42, 40, 6, 10, 36, 49, 11, 3, 35, 45, 18), 1130)
41: ((7, 47, 13, 44, 30, 17, 12, 4, 21, 15, 46, 25, 9, 29, 26, 14, 33, 39, 8, 28, 22, 27, 41, 37, 2, 0, 32, 43, 48, 19, 23, 16, 5, 1, 38, 20, 24, 34, 31, 42, 40, 6, 10, 36, 49, 11, 3, 35, 45, 18), 1130)
42: ((7, 47, 13, 44, 30, 17, 12, 4, 21, 15, 46, 25, 9, 29, 26, 14, 33, 39, 8, 28, 22, 27, 41, 37, 2, 0, 32, 43, 48, 19, 23, 16, 5, 1, 38, 20, 24, 34, 31, 42, 40, 6, 10, 36, 49, 11, 3, 35, 45, 18), 1130)
43: ((7, 47, 13, 44, 30, 17, 12, 4, 21, 15, 46, 25, 9, 29, 26, 14, 33, 39, 8, 28, 22, 27, 41, 37, 2, 0, 32, 43, 48, 19, 23, 16, 5, 1, 38, 20, 24, 34, 31, 42, 40, 6, 10, 36, 49, 11, 3, 35, 45, 18), 1130)
44: ((7, 47, 13, 44, 30, 17, 12, 4, 21, 15, 46, 25, 9, 29, 26, 14, 33, 39, 8, 28, 22, 27, 41, 37, 2, 0, 32, 43, 48, 19, 23, 16, 5, 1, 38, 20, 24, 34, 31, 42, 40, 6, 10, 36, 49, 11, 3, 35, 45, 18), 1130)
45: ((7, 47, 13, 44, 30, 17, 12, 4, 21, 15, 46, 25, 9, 29, 26, 14, 33, 39, 8, 28, 22, 27, 41, 37, 2, 0, 32, 43, 48, 19, 23, 16, 5, 1, 38, 20, 24, 34, 31, 42, 40, 6, 10, 36, 49, 11, 3, 35, 45, 18), 1130)
46: ((7, 47, 13, 44, 30, 17, 12, 4, 21, 15, 46, 25, 9, 29, 26, 14, 33, 39, 8, 28, 22, 27, 41, 37, 2, 0, 32, 43, 48, 19, 23, 16, 5, 1, 38, 20, 24, 34, 31, 42, 40, 6, 10, 36, 49, 11, 3, 35, 45, 18), 1130)
47: ((7, 47, 13, 44, 30, 17, 12, 4, 21, 15, 46, 25, 9, 29, 26, 14, 33, 39, 8, 28, 22, 27, 41, 37, 2, 0, 32, 43, 48, 19, 23, 16, 5, 1, 38, 20, 24, 34, 31, 42, 40, 6, 10, 36, 49, 11, 3, 35, 45, 18), 1130)
48: ((7, 47, 13, 44, 30, 17, 12, 4, 21, 15, 46, 25, 9, 29, 26, 14, 33, 39, 8, 28, 22, 27, 41, 37, 2, 0, 32, 43, 48, 19, 23, 16, 5, 1, 38, 20, 24, 34, 31, 42, 40, 6, 10, 36, 49, 11, 3, 35, 45, 18), 1130)
49: ((7, 47, 13, 44, 30, 17, 12, 4, 21, 15, 46, 25, 9, 29, 26, 14, 33, 39, 8, 28, 22, 27, 41, 37, 2, 0, 32, 43, 48, 19, 23, 16, 5, 1, 38, 20, 24, 34, 31, 42, 40, 6, 10, 36, 49, 11, 3, 35, 45, 18), 1130)
50: ((7, 47, 13, 44, 30, 17, 12, 4, 21, 15, 46, 25, 9, 29, 26, 14, 33, 39, 8, 28, 22, 27, 41, 37, 2, 0, 32, 43, 48, 19, 23, 16, 5, 1, 38, 20, 24, 34, 31, 42, 40, 6, 10, 36, 49, 11, 3, 35, 45, 18), 1130)
51: ((7, 47, 13, 44, 30, 17, 12, 4, 21, 15, 46, 25, 9, 29, 26, 14, 33, 39, 8, 28, 22, 27, 41, 37, 2, 0, 32, 43, 48, 19, 23, 16, 5, 1, 38, 20, 24, 34, 31, 42, 40, 6, 10, 36, 49, 11, 3, 35, 45, 18), 1130)
52: ((7, 47, 13, 44, 30, 17, 12, 4, 21, 15, 46, 25, 9, 29, 26, 14, 33, 39, 8, 28, 22, 27, 41, 37, 2, 0, 32, 43, 48, 19, 23, 16, 5, 1, 38, 20, 24, 34, 31, 42, 40, 6, 10, 36, 49, 11, 3, 35, 45, 18), 1130)
53: ((7, 47, 13, 44, 30, 17, 12, 4, 21, 15, 46, 25, 9, 29, 26, 14, 33, 39, 8, 28, 22, 27, 41, 37, 2, 0, 32, 43, 48, 19, 23, 16, 5, 1, 38, 20, 24, 34, 31, 42, 40, 6, 10, 36, 49, 11, 3, 35, 45, 18), 1130)
54: ((47, 13, 11, 30, 17, 38, 12, 4, 21, 15, 46, 25, 9, 26, 14, 33, 39, 28, 22, 23, 27, 41, 34, 7, 49, 42, 40, 10, 36, 6, 32, 8, 31, 3, 24, 29, 45, 5, 0, 20, 48, 2, 43, 37, 19, 18, 35, 1, 44, 16), 1133)
55: ((47, 13, 11, 30, 17, 38, 12, 4, 21, 15, 46, 25, 9, 26, 14, 33, 39, 28, 22, 23, 27, 41, 34, 7, 49, 42, 40, 10, 36, 6, 32, 8, 31, 3, 24, 29, 45, 5, 0, 20, 48, 2, 43, 37, 19, 18, 35, 1, 44, 16), 1133)
56: ((47, 13, 11, 30, 17, 38, 12, 4, 21, 15, 46, 25, 9, 26, 14, 33, 39, 28, 22, 23, 27, 41, 34, 7, 49, 42, 40, 10, 36, 6, 32, 8, 31, 3, 24, 29, 45, 5, 0, 20, 48, 2, 43, 37, 19, 18, 35, 1, 44, 16), 1133)
57: ((47, 13, 44, 30, 17, 12, 4, 21, 15, 46, 25, 9, 29, 26, 14, 33, 39, 8, 28, 22, 27, 41, 37, 2, 0, 32, 43, 48, 19, 23, 16, 5, 7, 1, 38, 20, 24, 34, 31, 42, 40, 6, 10, 36, 49, 11, 3, 35, 45, 18), 1140)
58: ((47, 13, 44, 30, 17, 12, 4, 21, 15, 46, 25, 9, 29, 26, 14, 33, 39, 8, 28, 22, 27, 41, 37, 2, 0, 32, 43, 48, 19, 23, 16, 5, 7, 1, 38, 20, 24, 34, 31, 42, 40, 6, 10, 36, 49, 11, 3, 35, 45, 18), 1140)
59: ((47, 13, 44, 30, 17, 12, 4, 21, 15, 46, 25, 9, 29, 26, 14, 33, 39, 8, 28, 22, 27, 41, 37, 2, 0, 32, 43, 48, 19, 23, 16, 5, 7, 1, 38, 20, 24, 34, 31, 42, 40, 6, 10, 36, 49, 11, 3, 35, 45, 18), 1140)
60: ((47, 13, 44, 30, 17, 12, 4, 21, 15, 46, 25, 9, 29, 26, 14, 33, 39, 8, 28, 22, 27, 41, 37, 2, 0, 32, 43, 48, 19, 23, 16, 5, 7, 1, 38, 20, 24, 34, 31, 42, 40, 6, 10, 36, 49, 11, 3, 35, 45, 18), 1140)
61: ((47, 13, 44, 30, 17, 12, 4, 21, 15, 46, 25, 9, 29, 26, 14, 33, 39, 8, 28, 22, 27, 41, 37, 2, 0, 32, 43, 48, 19, 23, 16, 5, 7, 1, 38, 20, 24, 34, 31, 42, 40, 6, 10, 36, 49, 11, 3, 35, 45, 18), 1140)
62: ((47, 13, 44, 30, 17, 12, 4, 21, 15, 46, 25, 9, 29, 26, 14, 33, 39, 8, 28, 22, 27, 41, 37, 2, 0, 32, 43, 48, 19, 23, 16, 5, 7, 1, 38, 20, 24, 34, 31, 42, 40, 6, 10, 36, 49, 11, 3, 35, 45, 18), 1140)
63: ((47, 13, 44, 30, 17, 12, 4, 21, 15, 46, 25, 9, 29, 26, 14, 33, 39, 8, 28, 22, 27, 41, 37, 2, 0, 32, 43, 48, 19, 23, 16, 5, 7, 1, 38, 20, 24, 34, 31, 42, 40, 6, 10, 36, 49, 11, 3, 35, 45, 18), 1140)
64: ((47, 13, 44, 30, 17, 12, 4, 21, 15, 46, 25, 9, 29, 26, 14, 33, 39, 8, 28, 22, 27, 41, 37, 2, 0, 32, 43, 48, 19, 23, 16, 5, 7, 1, 38, 20, 24, 34, 31, 42, 40, 6, 10, 36, 49, 11, 3, 35, 45, 18), 1140)
65: ((47, 13, 44, 30, 17, 12, 4, 21, 15, 46, 25, 9, 29, 26, 14, 33, 39, 8, 28, 22, 27, 41, 37, 2, 0, 32, 43, 48, 19, 23, 16, 5, 7, 1, 38, 20, 24, 34, 31, 42, 40, 6, 10, 36, 49, 11, 3, 35, 45, 18), 1140)
66: ((47, 13, 44, 30, 17, 12, 4, 21, 15, 46, 25, 9, 29, 26, 14, 33, 39, 8, 28, 22, 27, 41, 37, 2, 0, 32, 43, 48, 19, 23, 16, 5, 7, 1, 38, 20, 24, 34, 31, 42, 40, 6, 10, 36, 49, 11, 3, 35, 45, 18), 1140)
67: ((47, 13, 44, 30, 17, 12, 4, 21, 15, 46, 25, 9, 29, 26, 14, 33, 39, 8, 28, 22, 27, 41, 37, 2, 0, 32, 43, 48, 19, 23, 16, 5, 7, 1, 38, 20, 24, 34, 31, 42, 40, 6, 10, 36, 49, 11, 3, 35, 45, 18), 1140)
68: ((47, 13, 44, 30, 17, 12, 4, 21, 15, 46, 25, 9, 29, 26, 14, 33, 39, 8, 28, 22, 27, 41, 37, 2, 0, 32, 43, 48, 19, 23, 16, 5, 7, 1, 38, 20, 24, 34, 31, 42, 40, 6, 10, 36, 49, 11, 3, 35, 45, 18), 1140)
69: ((47, 13, 44, 30, 17, 12, 4, 21, 15, 46, 25, 9, 29, 26, 14, 33, 39, 8, 28, 22, 27, 41, 37, 2, 0, 32, 43, 48, 19, 23, 16, 5, 7, 1, 38, 20, 24, 34, 31, 42, 40, 6, 10, 36, 49, 11, 3, 35, 45, 18), 1140)
70: ((47, 13, 44, 30, 17, 12, 4, 21, 15, 46, 25, 9, 29, 26, 14, 33, 39, 8, 28, 22, 27, 41, 37, 2, 0, 32, 43, 48, 19, 23, 16, 5, 7, 1, 38, 20, 24, 34, 31, 42, 40, 6, 10, 36, 49, 11, 3, 35, 45, 18), 1140)
71: ((47, 13, 44, 30, 17, 12, 4, 21, 15, 46, 25, 9, 29, 26, 14, 33, 39, 8, 28, 22, 27, 41, 37, 2, 0, 32, 43, 48, 19, 23, 16, 5, 7, 1, 38, 20, 24, 34, 31, 42, 40, 6, 10, 36, 49, 11, 3, 35, 45, 18), 1140)
72: ((47, 13, 44, 30, 17, 12, 4, 21, 15, 46, 25, 9, 29, 26, 14, 33, 39, 8, 28, 22, 27, 41, 37, 2, 0, 32, 43, 48, 19, 23, 16, 5, 7, 1, 38, 20, 24, 34, 31, 42, 40, 6, 10, 36, 49, 11, 3, 35, 45, 18), 1140)
73: ((47, 13, 44, 30, 17, 12, 4, 21, 15, 46, 25, 9, 29, 26, 14, 33, 39, 8, 28, 22, 27, 41, 37, 2, 0, 32, 43, 48, 19, 23, 16, 5, 7, 1, 38, 20, 24, 34, 31, 42, 40, 6, 10, 36, 49, 11, 3, 35, 45, 18), 1140)
74: ((47, 13, 44, 30, 17, 12, 4, 21, 15, 46, 25, 9, 29, 26, 14, 33, 39, 8, 28, 22, 27, 41, 37, 2, 0, 32, 43, 48, 19, 23, 16, 5, 7, 1, 38, 20, 24, 34, 31, 42, 40, 6, 10, 36, 49, 11, 3, 35, 45, 18), 1140)
75: ((47, 13, 44, 30, 17, 12, 4, 21, 15, 46, 25, 9, 29, 26, 14, 33, 39, 8, 28, 22, 27, 41, 37, 2, 0, 32, 43, 48, 19, 23, 16, 5, 7, 1, 38, 20, 24, 34, 31, 42, 40, 6, 10, 36, 49, 11, 3, 35, 45, 18), 1140)
76: ((47, 13, 44, 30, 17, 12, 4, 21, 15, 46, 25, 9, 29, 26, 14, 33, 39, 8, 28, 22, 27, 41, 37, 2, 0, 32, 43, 48, 19, 23, 16, 5, 7, 1, 38, 20, 24, 34, 31, 42, 40, 6, 10, 36, 49, 11, 3, 35, 45, 18), 1140)
77: ((47, 13, 44, 30, 17, 12, 4, 9, 26, 14, 34, 33, 28, 8, 27, 19, 23, 38, 31, 7, 29, 39, 6, 42, 40, 10, 18, 41, 3, 21, 5, 0, 20, 48, 2, 43, 37, 35, 15, 22, 45, 24, 36, 49, 11, 1, 32, 16, 46, 25), 1133)
78: ((47, 13, 44, 30, 17, 12, 4, 9, 26, 14, 34, 33, 28, 8, 27, 19, 23, 38, 31, 7, 29, 39, 6, 42, 40, 10, 18, 41, 3, 21, 5, 0, 20, 48, 2, 43, 37, 35, 15, 22, 45, 24, 36, 49, 11, 1, 32, 16, 46, 25), 1133)
79: ((47, 13, 44, 30, 17, 12, 4, 9, 26, 14, 34, 33, 28, 8, 27, 19, 23, 38, 31, 7, 29, 39, 6, 42, 40, 10, 18, 41, 3, 21, 5, 0, 20, 48, 2, 43, 37, 35, 15, 22, 45, 24, 36, 49, 11, 1, 32, 16, 46, 25), 1133)
80: ((47, 13, 44, 30, 17, 12, 4, 9, 26, 14, 34, 33, 28, 8, 27, 19, 23, 38, 31, 7, 29, 39, 6, 42, 40, 10, 18, 41, 3, 21, 5, 0, 20, 48, 2, 43, 37, 35, 15, 22, 45, 24, 36, 49, 11, 1, 32, 16, 46, 25), 1133)
81: ((47, 13, 44, 30, 17, 12, 4, 9, 26, 14, 34, 33, 28, 8, 27, 19, 23, 38, 31, 7, 29, 39, 6, 42, 40, 10, 18, 41, 3, 21, 5, 0, 20, 48, 2, 43, 37, 35, 15, 22, 45, 24, 36, 49, 11, 1, 32, 16, 46, 25), 1133)
82: ((11, 47, 13, 44, 30, 17, 12, 4, 21, 15, 26, 22, 46, 25, 9, 29, 27, 14, 33, 39, 8, 28, 7, 37, 2, 0, 32, 43, 48, 19, 23, 16, 5, 1, 38, 20, 24, 18, 41, 34, 45, 42, 40, 3, 6, 10, 36, 49, 31, 35), 1130)
83: ((11, 47, 13, 44, 30, 17, 12, 4, 21, 15, 26, 22, 46, 25, 9, 29, 27, 14, 33, 39, 8, 28, 7, 37, 2, 0, 32, 43, 48, 19, 23, 16, 5, 1, 38, 20, 24, 18, 41, 34, 45, 42, 40, 3, 6, 10, 36, 49, 31, 35), 1130)
84: ((11, 47, 13, 44, 30, 17, 12, 4, 21, 15, 26, 22, 46, 25, 9, 29, 27, 14, 33, 39, 8, 28, 7, 37, 2, 0, 32, 43, 48, 19, 23, 16, 5, 1, 38, 20, 24, 18, 41, 34, 45, 42, 40, 3, 6, 10, 36, 49, 31, 35), 1130)
85: ((11, 47, 13, 44, 30, 17, 12, 4, 21, 15, 26, 22, 46, 25, 9, 29, 27, 14, 33, 39, 8, 28, 7, 37, 2, 0, 32, 43, 48, 19, 23, 16, 5, 1, 38, 20, 24, 18, 41, 34, 45, 42, 40, 3, 6, 10, 36, 49, 31, 35), 1130)
86: ((11, 47, 13, 44, 30, 17, 12, 4, 21, 15, 26, 22, 46, 25, 9, 29, 27, 14, 33, 39, 8, 28, 7, 37, 2, 0, 32, 43, 48, 19, 23, 16, 5, 1, 38, 20, 24, 18, 41, 34, 45, 42, 40, 3, 6, 10, 36, 49, 31, 35), 1130)
87: ((11, 47, 13, 44, 30, 17, 12, 4, 21, 15, 26, 22, 46, 25, 9, 29, 27, 14, 33, 39, 8, 28, 7, 37, 2, 0, 32, 43, 48, 19, 23, 16, 5, 1, 38, 20, 24, 18, 41, 34, 45, 42, 40, 3, 6, 10, 36, 49, 31, 35), 1130)
88: ((11, 47, 13, 44, 30, 17, 12, 4, 21, 15, 26, 22, 46, 25, 9, 29, 27, 14, 33, 39, 8, 28, 7, 37, 2, 0, 32, 43, 48, 19, 23, 16, 5, 1, 38, 20, 24, 18, 41, 34, 45, 42, 40, 3, 6, 10, 36, 49, 31, 35), 1130)
89: ((11, 47, 13, 44, 30, 17, 12, 4, 21, 15, 26, 22, 46, 25, 9, 29, 27, 14, 33, 39, 8, 28, 7, 37, 2, 0, 32, 43, 48, 19, 23, 16, 5, 1, 38, 20, 24, 18, 41, 34, 45, 42, 40, 3, 6, 10, 36, 49, 31, 35), 1130)
90: ((11, 47, 13, 44, 30, 17, 12, 4, 21, 15, 26, 22, 46, 25, 9, 29, 27, 14, 33, 39, 8, 28, 7, 37, 2, 0, 32, 43, 48, 19, 23, 16, 5, 1, 38, 20, 24, 18, 41, 34, 45, 42, 40, 3, 6, 10, 36, 49, 31, 35), 1130)
91: ((11, 47, 13, 44, 30, 17, 12, 4, 21, 15, 26, 22, 46, 25, 9, 29, 27, 14, 33, 39, 8, 28, 7, 37, 2, 0, 32, 43, 48, 19, 23, 16, 5, 1, 38, 20, 24, 18, 41, 34, 45, 42, 40, 3, 6, 10, 36, 49, 31, 35), 1130)
92: ((11, 47, 13, 44, 30, 17, 12, 4, 21, 15, 26, 22, 46, 25, 9, 29, 27, 14, 33, 39, 8, 28, 7, 37, 2, 0, 32, 43, 48, 19, 23, 16, 5, 1, 38, 20, 24, 18, 41, 34, 45, 42, 40, 3, 6, 10, 36, 49, 31, 35), 1130)
93: ((11, 47, 13, 44, 30, 17, 12, 4, 21, 15, 26, 22, 46, 25, 9, 29, 27, 14, 33, 39, 8, 28, 7, 37, 2, 0, 32, 43, 48, 19, 23, 16, 5, 1, 38, 20, 24, 18, 41, 34, 45, 42, 40, 3, 6, 10, 36, 49, 31, 35), 1130)
94: ((11, 47, 13, 44, 30, 17, 12, 4, 21, 15, 26, 22, 46, 25, 9, 29, 27, 14, 33, 39, 8, 28, 7, 37, 2, 0, 32, 43, 48, 19, 23, 16, 5, 1, 38, 20, 24, 18, 41, 34, 45, 42, 40, 3, 6, 10, 36, 49, 31, 35), 1130)
95: ((11, 47, 13, 44, 30, 17, 12, 4, 21, 15, 26, 22, 46, 25, 9, 29, 27, 14, 33, 39, 8, 28, 7, 37, 2, 0, 32, 43, 48, 19, 23, 16, 5, 1, 38, 20, 24, 18, 41, 34, 45, 42, 40, 3, 6, 10, 36, 49, 31, 35), 1130)
Best: ((7, 47, 13, 44, 30, 17, 12, 4, 21, 15, 46, 25, 9, 29, 26, 14, 33, 39, 8, 28, 22, 27, 41, 37, 2, 0, 32, 43, 48, 19, 23, 16, 5, 1, 38, 20, 24, 34, 31, 42, 40, 6, 10, 36, 49, 11, 3, 35, 45, 18), 1130)
Runtime: 372.2466104 s